
##########################################################################################
# Force field parameters
##########################################################################################

variable r_p   equal 5.0
variable r_lhg equal 6.75 
variable r_lmg equal 9

variable bond_K_S_ENM equal 1.0
variable bond_K_neighbor equal 10.0

pair_style hybrid/overlay soft 24.0 john4 cosine/squared 30.0 twogauss 25.0 coul/debye 0.1274 40.0
special_bonds lj 0.0 1.0 1.0 coul 0.0 0.0 0.0
dielectric 17.5

pair_coeff  *      *        soft    0.0  12.0   
pair_coeff  4*58   4*190    soft  100.0  $(2 * v_r_p)

pair_coeff  1   4*190    soft  60.0   $(v_r_p + v_r_lhg)
pair_coeff  2   4*190    soft  60.0   $(v_r_p + v_r_lmg)
pair_coeff  3   4*190    soft  60.0   $(v_r_p + v_r_lhg)

pair_coeff  1*3   4      soft  60.0   18
pair_coeff  1*3   6      soft  60.0   18
pair_coeff  1*3   8      soft  60.0   18

variable Boltzmann    equal  1.3806e-23
variable Avogadro     equal  6.0221e+23

variable Temperature  equal  300.0
variable kBT          equal  $( (v_Boltzmann * v_Temperature * v_Avogadro) / (4.184 * 1000.0) ) 

variable BEAD_SIZE    equal  18.0
variable STICKYNESS   equal  $(7.5 * 2.0)
variable TAIL_BEADS   equal  1.0
variable BEND 	      equal  30.0

variable R  equal $( v_BEAD_SIZE )
variable RC equal $( 2.0 * v_R )
variable A  equal $( (1.0/v_R) * (50.0*7.5)                  * v_kBT )
variable B  equal $( (1.0/v_R) * (v_STICKYNESS/v_TAIL_BEADS) * v_kBT )

variable R_HH equal $( 0.75 * v_R )
variable A_HH equal $( (1.0/v_R_HH) * (20.0*7.5) * v_kBT )

variable BOND_R equal $( v_R )
variable BOND_K equal $( 25.0 * v_kBT )
variable BEND_K equal $( v_BEND * v_kBT )

pair_coeff   1  1  john4    ${A_HH}  ${R_HH}   0.0   ${R_HH}
pair_coeff   1  2  john4    ${A}     ${R}      0.0   ${R}
pair_coeff   1  3  john4    ${A}     ${R}      0.0   ${R}

pair_coeff   2  2  john4    ${A}     ${R}      ${B}  ${RC}
pair_coeff   2  3  john4    ${A}     ${R}      0.0   ${R}

pair_coeff   3  3  john4    ${A_HH}  ${R_HH}   0.0   ${R_HH}

bond_coeff           1  14.9034021152008  18
angle_coeff          1  2.98068042304  180

 bond_coeff  2  0.0976  9.7188
 bond_coeff  69  0.0235  15.0198
 bond_coeff  46  0.0021  27.7480
 bond_coeff  183  0.0012  23.8493
 bond_coeff  319  0.0010  15.9610
 bond_coeff  456  0.0004  18.0829
 bond_coeff  593  0.0077  19.1685
 bond_coeff  729  0.0014  21.6261
 bond_coeff  865  0.0015  27.5438
 bond_coeff  17  0.0014  28.6041
 bond_coeff  280  0.0023  28.3161
 bond_coeff  66  0.0007  29.9530
 bond_coeff  201  0.0016  29.5577
 bond_coeff  338  0.0042  23.5537
 bond_coeff  473  0.0001  28.0614
 bond_coeff  608  0.0002  29.4612
 bond_coeff  743  0.0001  23.6723
 bond_coeff  880  0.0070  21.9794
 bond_coeff  335  0.1950  8.2457
 bond_coeff  80  0.0038  22.6607
 bond_coeff  213  0.0023  18.8916
 bond_coeff  347  0.0009  10.4453
 bond_coeff  480  0.0003  18.2258
 bond_coeff  613  0.0016  16.7259
 bond_coeff  746  0.0125  17.4546
 bond_coeff  879  0.0019  22.7217
 bond_coeff  6  0.0045  26.3134
 bond_coeff  20  0.0032  26.3627
 bond_coeff  33  0.0110  24.9254
 bond_coeff  48  0.0137  28.6116
 bond_coeff  61  0.0625  24.2003
 bond_coeff  74  0.0066  20.0728
 bond_coeff  87  0.0002  25.8048
 bond_coeff  100  0.0003  25.1449
 bond_coeff  115  0.0002  19.1439
 bond_coeff  129  0.0120  16.6770
 bond_coeff  143  0.0002  29.3716
 bond_coeff  156  0.5394  17.3673
 bond_coeff  170  0.0871  14.3875
 bond_coeff  184  0.0041  11.7929
 bond_coeff  197  0.0010  21.6494
 bond_coeff  210  0.0008  19.7338
 bond_coeff  223  0.0162  16.6260
 bond_coeff  238  0.0407  20.4799
 bond_coeff  252  0.0122  27.7439
 bond_coeff  266  0.0026  28.6017
 bond_coeff  279  0.0693  28.9604
 bond_coeff  293  0.0440  20.8932
 bond_coeff  306  0.0543  26.5266
 bond_coeff  320  0.0262  18.5494
 bond_coeff  333  0.0103  20.7346
 bond_coeff  348  0.0018  27.4017
 bond_coeff  361  0.0006  25.0107
 bond_coeff  375  0.0007  18.7348
 bond_coeff  389  0.5706  13.2726
 bond_coeff  403  0.0006  25.6384
 bond_coeff  416  0.0106  27.2394
 bond_coeff  429  3.0490  17.9167
 bond_coeff  442  3.2754  5.8009
 bond_coeff  457  0.0077  23.0957
 bond_coeff  471  0.3240  15.7420
 bond_coeff  484  0.3338  19.4839
 bond_coeff  498  0.7107  27.6423
 bond_coeff  512  0.0819  25.9785
 bond_coeff  526  0.0251  23.2812
 bond_coeff  539  0.3196  17.6841
 bond_coeff  552  2.9293  16.4058
 bond_coeff  566  1.5202  10.0242
 bond_coeff  579  1.1851  20.2604
 bond_coeff  594  0.2003  21.9199
 bond_coeff  607  0.0012  26.9168
 bond_coeff  621  1.6314  9.3901
 bond_coeff  636  0.3512  14.1571
 bond_coeff  649  0.7471  17.5404
 bond_coeff  662  0.0204  26.0302
 bond_coeff  676  0.0242  26.7947
 bond_coeff  689  0.0026  25.5674
 bond_coeff  703  0.0021  26.0006
 bond_coeff  716  4.2723  20.8327
 bond_coeff  730  0.1255  25.9607
 bond_coeff  744  0.0993  29.5268
 bond_coeff  759  0.0343  29.5073
 bond_coeff  772  0.0684  29.4144
 bond_coeff  786  0.5192  16.9325
 bond_coeff  799  1.5454  23.5944
 bond_coeff  812  0.3228  17.8472
 bond_coeff  826  1.9688  23.2923
 bond_coeff  839  9.0246  6.7725
 bond_coeff  852  1.8057  16.6655
 bond_coeff  867  0.4627  25.4058
 bond_coeff  882  0.0417  29.6350
 bond_coeff  896  0.2219  20.8354
 bond_coeff  909  0.0016  27.9133
 bond_coeff  922  2.1267  12.2571
 bond_coeff  936  0.4639  20.7041
 bond_coeff  949  0.2244  25.0608
 bond_coeff  962  0.0486  26.5936
 bond_coeff  974  0.0169  29.4405
 bond_coeff  975  0.0480  26.3476
 bond_coeff  140  0.3559  20.6017
 bond_coeff  263  0.9566  16.3748
 bond_coeff  386  1.2798  14.3527
 bond_coeff  509  1.4692  20.9065
 bond_coeff  632  0.2220  19.4948
 bond_coeff  755  0.0010  26.7140
 bond_coeff  878  0.8878  6.9954
 bond_coeff  113  2.0764  18.2047
 bond_coeff  36  0.2004  18.8536
 bond_coeff  158  0.2495  25.5198
 bond_coeff  402  0.2026  26.3453
 bond_coeff  524  0.0009  28.5520
 bond_coeff  646  0.0004  23.1276
 bond_coeff  768  0.0017  24.6007
 bond_coeff  891  0.1188  12.8213
 bond_coeff  5  0.1665  9.1282
 bond_coeff  18  0.4155  16.2687
 bond_coeff  30  0.0025  15.2824
 bond_coeff  42  0.0047  22.4765
 bond_coeff  54  0.2715  24.5408
 bond_coeff  78  0.1160  20.4492
 bond_coeff  90  0.0011  22.2451
 bond_coeff  103  0.0004  28.2891
 bond_coeff  116  0.0008  25.6743
 bond_coeff  128  0.0014  26.7950
 bond_coeff  141  0.0031  24.8523
 bond_coeff  153  0.0039  18.9020
 bond_coeff  165  0.1030  26.2507
 bond_coeff  177  0.0047  21.6710
 bond_coeff  189  0.0564  29.2697
 bond_coeff  214  0.0113  15.5144
 bond_coeff  227  0.0012  17.0820
 bond_coeff  239  0.0013  16.5758
 bond_coeff  251  0.0133  11.4705
 bond_coeff  264  0.0361  15.7261
 bond_coeff  276  0.2286  8.5217
 bond_coeff  288  0.0004  24.4653
 bond_coeff  300  0.0029  22.7822
 bond_coeff  312  0.0005  25.8273
 bond_coeff  325  0.0015  29.2717
 bond_coeff  350  0.0006  20.9036
 bond_coeff  362  0.0060  20.0715
 bond_coeff  374  0.0123  26.0023
 bond_coeff  387  0.0160  24.5274
 bond_coeff  399  0.0002  26.0577
 bond_coeff  411  0.0047  27.4903
 bond_coeff  423  0.0005  21.0202
 bond_coeff  436  0.0007  14.4632
 bond_coeff  449  0.0078  18.5505
 bond_coeff  461  0.0013  16.5180
 bond_coeff  485  0.0006  25.9338
 bond_coeff  497  0.0027  20.0585
 bond_coeff  510  0.0009  18.5997
 bond_coeff  522  0.3117  21.0376
 bond_coeff  534  0.0094  24.3868
 bond_coeff  547  0.0805  16.1943
 bond_coeff  560  0.0008  16.6907
 bond_coeff  572  0.0005  22.4149
 bond_coeff  584  0.0335  21.2200
 bond_coeff  596  0.0007  22.2761
 bond_coeff  620  0.0547  29.0363
 bond_coeff  633  0.0011  27.6740
 bond_coeff  645  0.0011  24.2739
 bond_coeff  658  0.0032  29.5627
 bond_coeff  671  0.0014  28.9027
 bond_coeff  683  0.0117  16.0445
 bond_coeff  695  0.0014  13.3791
 bond_coeff  707  0.0198  16.4330
 bond_coeff  719  0.0211  14.7466
 bond_coeff  731  0.0015  21.9569
 bond_coeff  756  1.3619  17.0526
 bond_coeff  769  2.1471  13.1086
 bond_coeff  782  1.0370  18.7831
 bond_coeff  794  0.0134  17.5850
 bond_coeff  806  0.0035  26.4679
 bond_coeff  818  0.0011  26.8813
 bond_coeff  830  0.0013  24.9213
 bond_coeff  842  1.8908  21.8101
 bond_coeff  854  0.0142  24.3814
 bond_coeff  866  0.0398  21.5069
 bond_coeff  893  1.4120  12.2927
 bond_coeff  905  0.7617  20.4888
 bond_coeff  917  1.3412  16.2893
 bond_coeff  929  2.7836  7.8975
 bond_coeff  941  0.0048  27.7266
 bond_coeff  953  0.0009  26.5189
 bond_coeff  965  0.0026  23.7671
 bond_coeff  976  0.5269  7.1020
 bond_coeff  977  0.1844  26.0376
 bond_coeff  224  1.4255  29.3542
 bond_coeff  446  1.1812  21.3984
 bond_coeff  557  0.5351  13.6873
 bond_coeff  668  0.0152  20.6852
 bond_coeff  779  0.0039  18.9578
 bond_coeff  890  0.0010  25.4748
 bond_coeff  3  0.0003  20.9477
 bond_coeff  14  0.0215  21.5146
 bond_coeff  25  0.3779  22.3011
 bond_coeff  47  0.1833  9.8152
 bond_coeff  58  0.0090  7.9404
 bond_coeff  91  0.2421  19.1614
 bond_coeff  102  0.0246  14.7410
 bond_coeff  114  0.0931  20.3325
 bond_coeff  125  0.3624  15.0672
 bond_coeff  136  0.0668  18.0966
 bond_coeff  147  0.0005  14.5610
 bond_coeff  169  0.0695  14.2318
 bond_coeff  180  1.6659  14.7663
 bond_coeff  191  0.0709  28.9478
 bond_coeff  202  3.9225  15.0499
 bond_coeff  225  0.3978  8.1614
 bond_coeff  236  0.0045  21.0361
 bond_coeff  247  0.0010  23.9312
 bond_coeff  258  0.0035  19.5466
 bond_coeff  269  0.0009  15.8785
 bond_coeff  291  2.6575  13.1249
 bond_coeff  302  0.0223  27.1769
 bond_coeff  313  0.0304  28.4141
 bond_coeff  324  1.4443  16.1862
 bond_coeff  336  1.4180  17.0242
 bond_coeff  358  1.1323  7.6771
 bond_coeff  369  0.0344  27.0324
 bond_coeff  380  0.0009  28.1288
 bond_coeff  391  0.0029  28.4547
 bond_coeff  413  0.6161  19.4185
 bond_coeff  424  0.1542  15.8277
 bond_coeff  435  0.0086  17.5145
 bond_coeff  447  0.0080  21.6584
 bond_coeff  458  0.0003  16.1146
 bond_coeff  469  0.0079  13.7304
 bond_coeff  491  2.5412  9.1313
 bond_coeff  502  0.0664  14.4259
 bond_coeff  513  0.0311  19.9612
 bond_coeff  535  0.8441  15.2086
 bond_coeff  546  0.0692  24.8062
 bond_coeff  558  0.5684  13.3992
 bond_coeff  569  0.2737  13.9342
 bond_coeff  580  0.0647  23.8772
 bond_coeff  591  0.0004  22.9422
 bond_coeff  602  0.0080  25.1338
 bond_coeff  624  0.0581  20.5430
 bond_coeff  635  0.0254  14.6714
 bond_coeff  657  0.0012  17.3644
 bond_coeff  669  0.0474  13.8651
 bond_coeff  680  0.0004  10.8375
 bond_coeff  691  0.7912  15.5665
 bond_coeff  702  0.0056  27.0182
 bond_coeff  713  0.0264  28.3851
 bond_coeff  724  0.0346  22.4249
 bond_coeff  735  0.0474  22.9386
 bond_coeff  757  0.0209  10.0203
 bond_coeff  780  0.0682  21.2158
 bond_coeff  791  0.0021  23.8819
 bond_coeff  802  0.0023  25.2231
 bond_coeff  813  0.0123  22.9478
 bond_coeff  824  0.1164  9.9840
 bond_coeff  835  0.0211  10.9027
 bond_coeff  846  0.0023  12.6661
 bond_coeff  857  0.0016  21.2572
 bond_coeff  868  0.0072  23.2264
 bond_coeff  902  0.0020  25.8779
 bond_coeff  913  0.0044  29.9133
 bond_coeff  924  0.0036  29.6023
 bond_coeff  935  0.0048  19.3800
 bond_coeff  946  0.0310  12.5272
 bond_coeff  957  0.0018  16.5181
 bond_coeff  968  0.0248  20.7780
 bond_coeff  978  0.0030  28.8206
 bond_coeff  979  0.1318  10.4351
 bond_coeff  4  0.0167  14.9865
 bond_coeff  7  0.0015  22.9554
 bond_coeff  8  0.0062  28.6524
 bond_coeff  9  0.0009  24.2991
 bond_coeff  10  0.0014  17.9124
 bond_coeff  11  0.0014  22.2935
 bond_coeff  12  0.0007  26.6314
 bond_coeff  13  0.0814  9.5337
 bond_coeff  15  0.0011  18.4403
 bond_coeff  16  0.0002  24.2722
 bond_coeff  19  0.0003  28.1606
 bond_coeff  21  0.0005  28.9655
 bond_coeff  22  0.0004  28.1236
 bond_coeff  23  0.0013  19.5750
 bond_coeff  24  0.0197  17.9816
 bond_coeff  26  0.0002  20.7923
 bond_coeff  27  0.0003  25.0592
 bond_coeff  28  0.0607  13.6712
 bond_coeff  29  0.0306  24.4703
 bond_coeff  31  0.0230  28.9486
 bond_coeff  32  0.0433  25.8542
 bond_coeff  34  0.0217  24.5864
 bond_coeff  35  0.0008  17.4523
 bond_coeff  37  0.0005  21.6222
 bond_coeff  38  0.0067  23.8453
 bond_coeff  39  0.0012  27.9718
 bond_coeff  40  0.0020  28.7709
 bond_coeff  41  0.0486  23.1504
 bond_coeff  43  0.0272  28.7389
 bond_coeff  44  1.3719  16.9746
 bond_coeff  45  0.5042  14.1242
 bond_coeff  49  0.3278  16.6552
 bond_coeff  50  0.0110  29.8839
 bond_coeff  51  0.2661  25.6722
 bond_coeff  52  0.3267  9.9861
 bond_coeff  53  0.0131  21.5355
 bond_coeff  55  0.0094  16.9662
 bond_coeff  56  0.0122  20.9258
 bond_coeff  57  0.0121  22.4709
 bond_coeff  59  0.0184  23.8456
 bond_coeff  60  0.0005  20.1607
 bond_coeff  62  0.0020  21.0232
 bond_coeff  63  0.2967  21.6354
 bond_coeff  64  0.0480  28.3522
 bond_coeff  65  1.1115  22.5205
 bond_coeff  67  0.2580  9.5277
 bond_coeff  68  0.4576  23.9469
 bond_coeff  70  0.0227  21.7634
 bond_coeff  71  0.0015  22.9589
 bond_coeff  72  0.0004  18.2970
 bond_coeff  73  0.0165  15.9980
 bond_coeff  75  0.0918  16.7470
 bond_coeff  76  0.0567  26.4379
 bond_coeff  77  2.9834  21.0633
 bond_coeff  79  3.9795  4.7867
 bond_coeff  81  0.7361  14.6679
 bond_coeff  82  3.4514  13.4744
 bond_coeff  83  0.5554  19.3837
 bond_coeff  84  1.0338  26.9431
 bond_coeff  85  1.8119  23.6253
 bond_coeff  86  0.4944  23.9868
 bond_coeff  88  0.0006  25.7479
 bond_coeff  89  0.0017  21.6329
 bond_coeff  92  1.5336  13.8233
 bond_coeff  93  0.4728  19.2029
 bond_coeff  94  0.2249  25.3907
 bond_coeff  95  0.4154  16.8112
 bond_coeff  96  1.0187  17.6877
 bond_coeff  97  0.5045  21.1982
 bond_coeff  98  0.0172  22.5142
 bond_coeff  99  0.0008  22.6020
 bond_coeff  101  0.0035  21.7571
 bond_coeff  104  1.0620  13.0572
 bond_coeff  105  0.0660  9.8929
 bond_coeff  106  0.0017  12.2384
 bond_coeff  107  0.0027  28.1507
 bond_coeff  108  0.0750  9.5112
 bond_coeff  109  0.0007  25.5327
 bond_coeff  110  0.0019  21.6631
 bond_coeff  111  0.8965  21.6977
 bond_coeff  112  0.3546  25.1968
 bond_coeff  117  0.0003  28.8578
 bond_coeff  118  4.7026  13.1254
 bond_coeff  119  0.1222  23.2356
 bond_coeff  120  0.1807  26.1301
 bond_coeff  121  0.8244  10.5406
 bond_coeff  122  0.7497  13.2137
 bond_coeff  123  0.0005  26.6627
 bond_coeff  124  0.0144  22.6417
 bond_coeff  126  0.0017  21.7985
 bond_coeff  127  0.0570  24.3657
 bond_coeff  130  1.0794  23.7299
 bond_coeff  131  0.4516  28.2687
 bond_coeff  132  1.5754  6.9267
 bond_coeff  133  0.0209  21.5923
 bond_coeff  134  0.0047  20.8244
 bond_coeff  135  0.0370  20.4212
 bond_coeff  137  2.1560  16.7718
 bond_coeff  138  0.6548  18.2260
 bond_coeff  139  0.0147  29.7626
 bond_coeff  142  0.4721  22.1751
 bond_coeff  144  0.1583  29.3405
 bond_coeff  145  0.0934  27.9399
 bond_coeff  146  0.0353  29.6525
 bond_coeff  148  0.0986  26.9809
 bond_coeff  149  0.5272  7.0630
 bond_coeff  150  1.2912  17.8843
 bond_coeff  151  0.9123  12.4199
 bond_coeff  152  0.0097  24.3693
 bond_coeff  154  0.2668  21.5793
 bond_coeff  155  0.1197  28.6901
 bond_coeff  157  0.0827  9.9143
 bond_coeff  159  0.3296  21.4651
 bond_coeff  160  0.1308  21.3850
 bond_coeff  161  0.0378  14.9707
 bond_coeff  162  0.0062  29.1839
 bond_coeff  163  0.2339  14.6101
 bond_coeff  164  2.1765  15.7137
 bond_coeff  166  0.1432  22.1934
 bond_coeff  167  0.4567  21.4507
 bond_coeff  168  0.6198  13.0924
 bond_coeff  171  1.3395  13.7908
 bond_coeff  172  0.0380  14.3898
 bond_coeff  173  0.6562  20.1608
 bond_coeff  174  1.1314  14.3857
 bond_coeff  175  0.7488  21.8068
 bond_coeff  176  0.2983  21.3648
 bond_coeff  178  0.0785  14.7940
 bond_coeff  179  0.0061  25.4409
 bond_coeff  181  0.0010  29.6658
 bond_coeff  182  0.0012  29.1946
 bond_coeff  185  0.0004  25.4368
 bond_coeff  186  0.0252  28.9954
 bond_coeff  187  0.0447  20.6299
 bond_coeff  188  0.3846  20.0149
 bond_coeff  190  1.7902  18.8770
 bond_coeff  192  0.2458  22.6056
 bond_coeff  193  0.0278  22.9766
 bond_coeff  194  0.6126  16.5388
 bond_coeff  195  0.0065  15.7409
 bond_coeff  196  0.0108  14.1208
 bond_coeff  198  0.0630  14.1378
 bond_coeff  199  0.1834  13.6683
 bond_coeff  200  0.0006  18.4364
 bond_coeff  203  0.0022  19.4060
 bond_coeff  204  0.0006  17.7053
 bond_coeff  205  0.0121  18.6955
 bond_coeff  206  0.0932  16.6161
 bond_coeff  207  1.1515  20.5233
 bond_coeff  208  1.4892  17.4858
 bond_coeff  209  1.0370  17.1905
 bond_coeff  211  2.7579  7.1803
 bond_coeff  212  0.0932  26.1274
 bond_coeff  215  0.0595  20.7596
 bond_coeff  216  0.0387  26.8882
 bond_coeff  217  2.6085  9.3960
 bond_coeff  218  0.0102  23.3722
 bond_coeff  219  0.0313  28.6486
 bond_coeff  220  0.0035  29.0906
 bond_coeff  221  0.6735  11.0734
 bond_coeff  222  0.4391  14.8071
 bond_coeff  226  0.7156  21.0832
 bond_coeff  228  0.0303  22.1834
 bond_coeff  229  0.4903  20.8319
 bond_coeff  230  0.0525  23.8487
 bond_coeff  231  0.1429  19.7375
 bond_coeff  232  0.1196  28.5988
 bond_coeff  233  4.7440  11.2987
 bond_coeff  234  0.4181  17.8743
 bond_coeff  235  0.1545  16.0218
 bond_coeff  237  0.4124  25.7132
 bond_coeff  240  0.0003  29.9536
 bond_coeff  241  0.1278  26.5088
 bond_coeff  242  0.7992  13.6399
 bond_coeff  243  0.0148  25.1405
 bond_coeff  244  0.3668  19.9229
 bond_coeff  245  0.0537  14.4300
 bond_coeff  246  0.0321  24.2708
 bond_coeff  248  0.0042  27.3447
 bond_coeff  249  0.0002  26.3973
 bond_coeff  250  0.1649  26.9066
 bond_coeff  253  2.7838  5.9872
 bond_coeff  254  0.0073  24.6584
 bond_coeff  255  0.8805  9.6560
 bond_coeff  256  0.5190  16.7595
 bond_coeff  257  0.9927  15.2062
 bond_coeff  259  0.0008  17.9870
 bond_coeff  260  0.0004  20.2843
 bond_coeff  261  0.0022  22.4436
 bond_coeff  262  0.0033  25.3295
 bond_coeff  265  0.6392  13.2426
 bond_coeff  267  0.5216  23.2521
 bond_coeff  268  0.0594  22.0900
 bond_coeff  270  0.0304  17.0037
 bond_coeff  271  0.0002  14.8345
 bond_coeff  272  0.0249  22.2907
 bond_coeff  273  0.0007  25.1452
 bond_coeff  274  0.0032  26.8371
 bond_coeff  275  0.2922  20.8140
 bond_coeff  277  0.0736  15.9135
 bond_coeff  278  0.1367  18.2188
 bond_coeff  281  0.0025  26.7011
 bond_coeff  282  0.0074  22.9453
 bond_coeff  283  0.0279  18.4700
 bond_coeff  284  0.0029  21.6543
 bond_coeff  285  0.0293  7.3692
 bond_coeff  286  0.0689  29.7779
 bond_coeff  287  0.1473  13.9503
 bond_coeff  289  0.0010  13.0120
 bond_coeff  290  0.0196  15.1509
 bond_coeff  292  0.0154  11.8135
 bond_coeff  294  0.2427  15.2100
 bond_coeff  295  0.1017  15.6640
 bond_coeff  296  0.0012  23.1742
 bond_coeff  297  0.0041  22.0847
 bond_coeff  298  0.0641  24.4069
 bond_coeff  299  0.0002  27.3925
 bond_coeff  301  0.0192  13.2665
 bond_coeff  303  0.0085  17.3699
 bond_coeff  304  0.0137  20.5207
 bond_coeff  305  0.0100  14.0155
 bond_coeff  307  0.0006  17.1082
 bond_coeff  308  0.1147  20.7880
 bond_coeff  309  0.0037  22.0764
 bond_coeff  310  0.0008  26.1631
 bond_coeff  311  0.0007  27.3315
 bond_coeff  314  1.0445  14.3303
 bond_coeff  315  0.9120  9.7752
 bond_coeff  316  0.0106  29.8022
 bond_coeff  317  3.2891  6.9376
 bond_coeff  318  0.0105  27.4590
 bond_coeff  321  0.0034  18.8604
 bond_coeff  322  0.0014  16.9596
 bond_coeff  323  0.0247  15.1524
 bond_coeff  326  0.6923  11.2703
 bond_coeff  327  0.4712  13.5361
 bond_coeff  328  0.0015  24.8196
 bond_coeff  329  0.0511  12.5883
 bond_coeff  330  0.0082  15.1289
 bond_coeff  331  0.0077  16.6066
 bond_coeff  332  0.0910  27.3678
 bond_coeff  334  0.1297  9.6720
 bond_coeff  337  0.0008  17.7593
 bond_coeff  339  0.0006  25.3460
 bond_coeff  340  0.0921  15.6692
 bond_coeff  341  0.0220  21.8882
 bond_coeff  342  0.0009  26.1657
 bond_coeff  343  1.4497  12.3889
 bond_coeff  344  0.0058  22.6838
 bond_coeff  345  0.0223  16.6232
 bond_coeff  346  0.2346  15.0375
 bond_coeff  349  0.0423  29.1060
 bond_coeff  351  0.0932  21.0922
 bond_coeff  352  0.1577  15.0936
 bond_coeff  353  0.0418  20.7940
 bond_coeff  354  0.0562  25.0515
 bond_coeff  355  0.0440  24.0411
 bond_coeff  356  0.1436  15.8699
 bond_coeff  357  0.2588  14.3246
 bond_coeff  359  0.0199  17.5664
 bond_coeff  360  0.0261  16.3810
 bond_coeff  363  0.3766  23.1199
 bond_coeff  364  0.0440  22.7452
 bond_coeff  365  0.0665  28.2241
 bond_coeff  366  0.0618  26.0975
 bond_coeff  367  0.1773  22.9858
 bond_coeff  368  0.0333  22.0529
 bond_coeff  370  0.0533  27.4468
 bond_coeff  371  0.1024  16.7034
 bond_coeff  372  0.0761  23.8745
 bond_coeff  373  0.8906  14.4331
 bond_coeff  376  0.3649  26.6289
 bond_coeff  377  0.1595  21.4617
 bond_coeff  378  0.3861  11.2836
 bond_coeff  379  0.1494  22.5678
 bond_coeff  381  0.1865  22.3221
 bond_coeff  382  0.1708  29.6520
 bond_coeff  383  0.1374  22.2573
 bond_coeff  384  0.0698  26.9786
 bond_coeff  385  0.1466  27.5546
 bond_coeff  388  0.0442  27.1383
 bond_coeff  390  0.0527  21.8068
 bond_coeff  392  0.0979  12.9519
 bond_coeff  393  0.1130  21.8889
 bond_coeff  394  0.0252  14.3288
 bond_coeff  395  0.0080  31.9806
 bond_coeff  396  0.0035  39.4223
 bond_coeff  397  0.0043  31.2197
 bond_coeff  398  0.0146  36.5553
 bond_coeff  400  0.3201  21.5340
 bond_coeff  401  0.0081  39.2617
 bond_coeff  404  0.0057  32.1500
 bond_coeff  405  0.1806  39.7692
 bond_coeff  406  0.0111  37.4612
 bond_coeff  407  0.0044  36.5346
 bond_coeff  408  0.0703  26.8519
 bond_coeff  409  0.0035  29.7371
 bond_coeff  410  0.0029  37.6277
 bond_coeff  412  0.0031  39.0437
 bond_coeff  414  0.0051  36.8433
 bond_coeff  415  0.0061  38.3328
 bond_coeff  417  0.3393  18.8404
 bond_coeff  418  0.0056  24.7698
 bond_coeff  419  0.0051  39.4271
 bond_coeff  420  0.2190  37.4768
 bond_coeff  421  0.0040  34.1857
 bond_coeff  422  0.0039  30.2114
 bond_coeff  425  0.0035  29.4734
 bond_coeff  426  0.0188  36.0978
 bond_coeff  427  0.0087  34.7402
 bond_coeff  428  0.0040  28.0055
 bond_coeff  430  0.0074  33.5682
 bond_coeff  431  0.0098  19.9551
 bond_coeff  432  0.3215  36.6102
 bond_coeff  433  0.0204  30.3105
 bond_coeff  434  0.1523  37.9656
 bond_coeff  437  0.0387  25.7887
 bond_coeff  438  0.0363  37.3126
 bond_coeff  439  0.0483  37.5986
 bond_coeff  440  0.6013  27.8886
 bond_coeff  441  0.0191  22.3315
 bond_coeff  443  0.0153  28.6357
 bond_coeff  444  0.0024  36.4508
 bond_coeff  445  0.2268  39.5987
 bond_coeff  448  0.0331  25.3307
 bond_coeff  450  0.0430  35.8197
 bond_coeff  451  0.0517  6.4676
 bond_coeff  452  1.1231  19.7153
 bond_coeff  453  3.6137  11.6877
 bond_coeff  454  1.2808  21.1195
 bond_coeff  455  0.0248  35.1147
 bond_coeff  459  1.6520  27.3529
 bond_coeff  460  2.1839  27.3684
 bond_coeff  462  0.2397  23.2666
 bond_coeff  463  0.0260  18.1683
 bond_coeff  464  0.0114  25.1938
 bond_coeff  465  0.0217  18.0049
 bond_coeff  466  0.0027  29.6189
 bond_coeff  467  0.0018  35.1050
 bond_coeff  468  0.0005  37.7901
 bond_coeff  470  0.0030  38.4112
 bond_coeff  472  0.0730  24.1354
 bond_coeff  474  0.7360  20.3387
 bond_coeff  475  0.9331  18.8936
 bond_coeff  476  0.0435  20.1080
 bond_coeff  477  1.7374  9.8065
 bond_coeff  478  0.0040  13.8257
 bond_coeff  479  0.0214  23.7494
 bond_coeff  481  0.0468  38.3630
 bond_coeff  482  0.2256  20.4075
 bond_coeff  483  0.1620  10.8865
 bond_coeff  486  5.7156  10.9382
 bond_coeff  487  1.9288  20.5933
 bond_coeff  488  0.4152  38.9373
 bond_coeff  489  0.0643  30.4596
 bond_coeff  490  0.7066  26.6242
 bond_coeff  492  1.5581  19.8657
 bond_coeff  493  4.2959  8.7929
 bond_coeff  494  0.3525  23.7794
 bond_coeff  495  0.0280  34.2551
 bond_coeff  496  0.0036  28.3591
 bond_coeff  499  0.1405  19.2369
 bond_coeff  500  0.0153  14.7734
 bond_coeff  501  0.0032  22.6359
 bond_coeff  503  0.0007  23.7053
 bond_coeff  504  0.0025  20.0222
 bond_coeff  505  0.0489  15.4100
 bond_coeff  506  0.0752  15.2028
 bond_coeff  507  0.2079  29.2769
 bond_coeff  508  1.3979  38.1368
 bond_coeff  511  0.0944  33.5283
 bond_coeff  514  0.0583  24.8906
 bond_coeff  515  2.2097  10.6838
 bond_coeff  516  0.6893  20.7053
 bond_coeff  517  0.1457  35.4804
 bond_coeff  518  0.7224  34.7545
 bond_coeff  519  3.8088  14.6110
 bond_coeff  520  6.3495  12.7047
 bond_coeff  521  0.9019  27.7496
 bond_coeff  523  2.8271  18.1409
 bond_coeff  525  1.6039  12.7312
 bond_coeff  527  0.2361  30.8516
 bond_coeff  528  0.0018  31.2073
 bond_coeff  529  0.0009  34.3789
 bond_coeff  530  0.0005  32.2556
 bond_coeff  531  0.0043  26.9316
 bond_coeff  532  0.0169  16.2959
 bond_coeff  533  1.1237  38.1123
 bond_coeff  536  0.0906  31.5756
 bond_coeff  537  1.7062  15.9231
 bond_coeff  538  1.4868  14.4563
 bond_coeff  540  1.1890  11.8550
 bond_coeff  541  1.0886  18.2220
 bond_coeff  542  0.1144  36.9753
 bond_coeff  543  1.2546  21.7152
 bond_coeff  544  0.0597  39.4403
 bond_coeff  545  0.0110  38.7279
 bond_coeff  548  0.0010  29.9404
 bond_coeff  549  0.0006  35.6729
 bond_coeff  550  0.0005  34.4637
 bond_coeff  551  0.0055  29.2432
 bond_coeff  553  1.1595  18.1372
 bond_coeff  554  0.3251  32.1389
 bond_coeff  555  0.2387  26.7724
 bond_coeff  556  1.4331  18.5112
 bond_coeff  559  0.3962  25.3697
 bond_coeff  561  0.2105  20.5676
 bond_coeff  562  3.8574  11.5540
 bond_coeff  563  1.9764  27.1475
 bond_coeff  564  0.1095  37.4095
 bond_coeff  565  1.7994  18.2612
 bond_coeff  567  0.0527  32.5838
 bond_coeff  568  0.0073  28.0436
 bond_coeff  570  0.0191  22.2072
 bond_coeff  571  0.0010  21.1568
 bond_coeff  573  0.0010  28.9220
 bond_coeff  574  0.0022  30.9563
 bond_coeff  575  0.0097  27.1836
 bond_coeff  576  0.5890  21.6797
 bond_coeff  577  3.7113  13.0643
 bond_coeff  578  0.8172  23.8592
 bond_coeff  581  0.1722  33.8201
 bond_coeff  582  0.2242  33.8741
 bond_coeff  583  0.0066  28.9317
 bond_coeff  585  0.2515  18.1556
 bond_coeff  586  0.1000  28.2929
 bond_coeff  587  0.9713  39.9955
 bond_coeff  588  3.0244  19.8969
 bond_coeff  589  8.2563  10.3403
 bond_coeff  590  1.1799  24.5736
 bond_coeff  592  1.6667  17.6963
 bond_coeff  595  1.0600  18.6222
 bond_coeff  597  0.0021  17.4934
 bond_coeff  598  0.0633  20.5771
 bond_coeff  599  0.0008  27.8997
 bond_coeff  600  0.0007  33.7415
 bond_coeff  601  0.0030  38.2625
 bond_coeff  603  0.0021  36.2707
 bond_coeff  604  0.0300  35.1339
 bond_coeff  605  2.2138  11.1763
 bond_coeff  606  0.0520  8.3402
 bond_coeff  609  0.0421  20.5417
 bond_coeff  610  0.0623  30.2609
 bond_coeff  611  0.1361  25.6954
 bond_coeff  612  0.0124  29.0314
 bond_coeff  614  0.0447  29.1996
 bond_coeff  615  0.2564  37.5778
 bond_coeff  616  0.7421  20.6328
 bond_coeff  617  0.1897  19.8781
 bond_coeff  618  1.7583  15.2184
 bond_coeff  619  0.0825  39.0468
 bond_coeff  622  0.2484  14.2445
 bond_coeff  623  0.0399  19.1943
 bond_coeff  625  0.0008  32.3200
 bond_coeff  626  0.0006  35.7310
 bond_coeff  627  0.8854  22.5417
 bond_coeff  628  0.6779  15.9036
 bond_coeff  629  1.0569  16.5505
 bond_coeff  630  0.1075  18.8668
 bond_coeff  631  0.0200  12.7168
 bond_coeff  634  0.0263  23.2661
 bond_coeff  637  0.0082  34.0431
 bond_coeff  638  0.2164  30.8902
 bond_coeff  639  0.8648  21.6724
 bond_coeff  640  0.0411  17.7843
 bond_coeff  641  0.1518  31.0061
 bond_coeff  642  0.0313  36.6681
 bond_coeff  643  0.0470  13.9104
 bond_coeff  644  0.0042  22.8858
 bond_coeff  647  0.0020  25.0840
 bond_coeff  648  0.0009  31.2736
 bond_coeff  650  0.0005  31.2087
 bond_coeff  651  0.0028  35.0223
 bond_coeff  652  0.0058  15.3598
 bond_coeff  653  0.0053  21.0397
 bond_coeff  654  0.0762  28.1474
 bond_coeff  655  0.0445  32.6662
 bond_coeff  656  0.0060  22.1231
 bond_coeff  659  0.0057  23.9565
 bond_coeff  660  0.0018  29.8105
 bond_coeff  661  0.0079  30.3707
 bond_coeff  663  0.4709  29.0697
 bond_coeff  664  0.0322  18.7620
 bond_coeff  665  0.0006  14.2037
 bond_coeff  666  0.0008  18.6544
 bond_coeff  667  0.0006  22.9296
 bond_coeff  670  0.0023  23.2831
 bond_coeff  672  0.2161  27.5172
 bond_coeff  673  0.2092  13.8497
 bond_coeff  674  0.6399  23.8947
 bond_coeff  675  0.2854  29.8613
 bond_coeff  677  0.0193  33.4444
 bond_coeff  678  0.0392  18.5544
 bond_coeff  679  0.0072  12.2299
 bond_coeff  681  0.0120  17.0766
 bond_coeff  682  0.0094  34.1050
 bond_coeff  684  0.0325  32.3379
 bond_coeff  685  0.3699  21.9414
 bond_coeff  686  0.1947  24.3041
 bond_coeff  687  1.7192  11.1341
 bond_coeff  688  0.0177  38.2534
 bond_coeff  690  0.1138  10.0214
 bond_coeff  692  0.0054  14.6595
 bond_coeff  693  0.0591  12.4858
 bond_coeff  694  0.0127  15.6184
 bond_coeff  696  0.0033  17.3395
 bond_coeff  697  0.0011  33.6826
 bond_coeff  698  0.0011  32.0203
 bond_coeff  699  0.0011  21.5729
 bond_coeff  700  0.0146  14.2665
 bond_coeff  701  0.0017  23.0807
 bond_coeff  704  0.0014  36.2003
 bond_coeff  705  0.0013  38.8036
 bond_coeff  706  0.0043  24.4244
 bond_coeff  708  0.0038  24.5141
 bond_coeff  709  0.0022  34.1947
 bond_coeff  710  0.0016  21.2433
 bond_coeff  711  0.0893  10.1672
 bond_coeff  712  0.0365  11.4178
 bond_coeff  714  0.0194  19.2812
 bond_coeff  715  0.0018  23.4774
 bond_coeff  717  0.0010  39.5059
 bond_coeff  718  0.0011  35.8319
 bond_coeff  720  0.0016  25.1845
 bond_coeff  721  0.0011  20.9478
 bond_coeff  722  0.0004  26.3259
 bond_coeff  723  0.0004  37.0675
 bond_coeff  725  0.0008  30.5707
 bond_coeff  726  0.0012  32.4238
 bond_coeff  727  0.0012  27.6407
 bond_coeff  728  0.0036  8.4497
 bond_coeff  732  0.0297  18.8023
 bond_coeff  733  0.0132  27.9643
 bond_coeff  734  0.0005  39.4002
 bond_coeff  736  0.0003  27.1440
 bond_coeff  737  0.0003  20.5804
 bond_coeff  738  0.0002  22.9630
 bond_coeff  739  0.0004  33.4995
 bond_coeff  740  0.0003  37.8738
 bond_coeff  741  0.0004  28.6042
 bond_coeff  742  0.0023  33.7622
 bond_coeff  745  0.0016  30.9478
 bond_coeff  747  0.1024  12.7357
 bond_coeff  748  0.0026  25.3860
 bond_coeff  749  0.0014  29.1354
 bond_coeff  750  0.0005  19.2901
 bond_coeff  751  0.0004  19.1623
 bond_coeff  752  0.0008  29.5315
 bond_coeff  753  0.0009  33.4849
 bond_coeff  754  0.0014  24.5586
 bond_coeff  758  0.0184  31.4107
 bond_coeff  760  0.0111  30.3282
 bond_coeff  761  0.0731  24.5668
 bond_coeff  762  0.0188  34.2598
 bond_coeff  763  0.0104  19.7590